50
1266
18 73 98 9 33 16 64 98 58 61 84 49 27 13 63 4 50 56 78 98 99 1 90 58 35 93 30 76 14 41 4 3 4 84 70 2 49 88 28 55 93 4 68 29 98 57 64 71 30 45
30 87 29 98 59 38 3 54 72 83 13 24 81 93 38 16 96 43 93 92 65 55 65 86 25 39 37 76 64 65 51 76 5 62 32 96 52 54 86 23 47 71 90 100 87 95 48 12 57 85
